;credit_duration column

(set-logic ALL)
; rows (m) = 100
; cols (n) = 1
(declare-const D (Array Int (Array Int Int)))
(define-fun m () Int 100)
(define-fun n () Int 1)

(define-fun row1 ((x0 Int)) (Array Int Int)
  (store ((as const (Array Int Int)) 0) 0 x0)
)

(assert (= (select D 0) (row1 6)))
(assert (= (select D 1) (row1 48)))
(assert (= (select D 2) (row1 12)))
(assert (= (select D 3) (row1 42)))
(assert (= (select D 4) (row1 24)))
(assert (= (select D 5) (row1 36)))
(assert (= (select D 6) (row1 24)))
(assert (= (select D 7) (row1 36)))
(assert (= (select D 8) (row1 12)))
(assert (= (select D 9) (row1 30)))
(assert (= (select D 10) (row1 12)))
(assert (= (select D 11) (row1 48)))
(assert (= (select D 12) (row1 12)))
(assert (= (select D 13) (row1 24)))
(assert (= (select D 14) (row1 15)))
(assert (= (select D 15) (row1 24)))
(assert (= (select D 16) (row1 24)))
(assert (= (select D 17) (row1 30)))
(assert (= (select D 18) (row1 24)))
(assert (= (select D 19) (row1 24)))
(assert (= (select D 20) (row1 9)))
(assert (= (select D 21) (row1 6)))
(assert (= (select D 22) (row1 10)))
(assert (= (select D 23) (row1 12)))
(assert (= (select D 24) (row1 10)))
(assert (= (select D 25) (row1 6)))
(assert (= (select D 26) (row1 6)))
(assert (= (select D 27) (row1 12)))
(assert (= (select D 28) (row1 7)))
(assert (= (select D 29) (row1 60)))
(assert (= (select D 30) (row1 18)))
(assert (= (select D 31) (row1 24)))
(assert (= (select D 32) (row1 18)))
(assert (= (select D 33) (row1 12)))
(assert (= (select D 34) (row1 12)))
(assert (= (select D 35) (row1 45)))
(assert (= (select D 36) (row1 48)))
(assert (= (select D 37) (row1 18)))
(assert (= (select D 38) (row1 10)))
(assert (= (select D 39) (row1 9)))
(assert (= (select D 40) (row1 30)))
(assert (= (select D 41) (row1 12)))
(assert (= (select D 42) (row1 18)))
(assert (= (select D 43) (row1 30)))
(assert (= (select D 44) (row1 48)))
(assert (= (select D 45) (row1 11)))
(assert (= (select D 46) (row1 36)))
(assert (= (select D 47) (row1 6)))
(assert (= (select D 48) (row1 11)))
(assert (= (select D 49) (row1 12)))
(assert (= (select D 50) (row1 24)))
(assert (= (select D 51) (row1 27)))
(assert (= (select D 52) (row1 12)))
(assert (= (select D 53) (row1 18)))
(assert (= (select D 54) (row1 36)))
(assert (= (select D 55) (row1 6)))
(assert (= (select D 56) (row1 12)))
(assert (= (select D 57) (row1 36)))
(assert (= (select D 58) (row1 18)))
(assert (= (select D 59) (row1 36)))
(assert (= (select D 60) (row1 9)))
(assert (= (select D 61) (row1 15)))
(assert (= (select D 62) (row1 36)))
(assert (= (select D 63) (row1 48)))
(assert (= (select D 64) (row1 24)))
(assert (= (select D 65) (row1 27)))
(assert (= (select D 66) (row1 12)))
(assert (= (select D 67) (row1 12)))
(assert (= (select D 68) (row1 36)))
(assert (= (select D 69) (row1 36)))
(assert (= (select D 70) (row1 36)))
(assert (= (select D 71) (row1 7)))
(assert (= (select D 72) (row1 8)))
(assert (= (select D 73) (row1 42)))
(assert (= (select D 74) (row1 36)))
(assert (= (select D 75) (row1 12)))
(assert (= (select D 76) (row1 42)))
(assert (= (select D 77) (row1 11)))
(assert (= (select D 78) (row1 54)))
(assert (= (select D 79) (row1 30)))
(assert (= (select D 80) (row1 24)))
(assert (= (select D 81) (row1 15)))
(assert (= (select D 82) (row1 18)))
(assert (= (select D 83) (row1 24)))
(assert (= (select D 84) (row1 10)))
(assert (= (select D 85) (row1 12)))
(assert (= (select D 86) (row1 18)))
(assert (= (select D 87) (row1 36)))
(assert (= (select D 88) (row1 18)))
(assert (= (select D 89) (row1 12)))
(assert (= (select D 90) (row1 12)))
(assert (= (select D 91) (row1 12)))
(assert (= (select D 92) (row1 12)))
(assert (= (select D 93) (row1 24)))
(assert (= (select D 94) (row1 12)))
(assert (= (select D 95) (row1 54)))
(assert (= (select D 96) (row1 12)))
(assert (= (select D 97) (row1 18)))
(assert (= (select D 98) (row1 36)))
(assert (= (select D 99) (row1 20)))

(assert
  (forall ((i Int))
    (=>
      (and (>= i 0) (< i m))
      (and
        (>= (select (select D i) 0) 0)
        (<  (select (select D i) 0) 600)
      )
    )
  )
)

(check-sat)